LP Examples Using Gurobi/example1.lp
\ Model mip1
\ LP format - for model browsing. Use MPS format to capture full model detail.
Maximize
  x + y + 2 z
Subject To
 c0: x + 2 y + 3 z <= 4
 c1: x + y >= 1
 c2: x >= 0
 c3: y >= 0
 c4: z >= 0
Bounds
End
