LP Examples Using Gurobi/example1.sol
# Solution for model mip1
# Objective value = 4
x 4
y 0
z 0
